g9 0 1 0 108 20190616 0 4 0 240	# problem steenbrd
 468 108 1 0 108	# vars, constraints, objectives, ranges, eqns
 0 1	# nonlinear constraints, objectives
 0 0	# network constraints: nonlinear, linear
 0 468 0	# nonlinear vars in constraints, objectives, both
 0 0 0 1	# linear network variables; functions; arith, flags
 0 0 0 0 0	# discrete variables: binary, integer, nonlinear (b,c,o)
 864 468	# nonzeros in Jacobian, gradients
 0 0	# max name lengths: constraints, variables
 0 0 0 0 0	# common exprs: b,c,o,c1,o1
b
2 0.01
2 0.01
2 0.01
2 2000
2 0.01
2 0.01
2 0.01
2 0.01
2 0.01
2 0.01
2 0.01
2 0.01
2 0.01
2 0.01
2 0.01
2 0.01
2 0.01
2 0.01
2 0.01
2 0.01
2 0.01
2 2000
2 0.01
2 0.01
2 0.01
2 0.01
2 0.01
2 0.01
2 0.01
2 0.01
2 0.01
2 0.01
2 0.01
2 0.01
2 0.01
2 0.01
2 0
2 0
2 0
2 0
2 0
2 0
2 0
2 0
2 0
2 0
2 0
2 0
2 0
2 0
2 0
2 0
2 0
2 0
2 0
2 0
2 0
2 0
2 0
2 0
2 0
2 0
2 0
2 0
2 0
2 0
2 0
2 0
2 0
2 0
2 0
2 0
2 0
2 0
2 0
2 0
2 0
2 0
2 0
2 0
2 0
2 0
2 0
2 0
2 0
2 0
2 0
2 0
2 0
2 0
2 0
2 0
2 0
2 0
2 0
2 0
2 0
2 0
2 0
2 0
2 0
2 0
2 0
2 0
2 0
2 0
2 0
2 0
2 0
2 0
2 0
2 0
2 0
2 0
2 0
2 0
2 0
2 0
2 0
2 0
2 0
2 0
2 0
2 0
2 0
2 0
2 0
2 0
2 0
2 0
2 0
2 0
2 0
2 0
2 0
2 0
2 0
2 0
2 0
2 0
2 0
2 0
2 0
2 0
2 0
2 0
2 0
2 0
2 0
2 0
2 0
2 0
2 0
2 0
2 0
2 0
2 0
2 0
2 0
2 0
2 0
2 0
2 0
2 0
2 0
2 0
2 0
2 0
2 0
2 0
2 0
2 0
2 0
2 0
2 0
2 0
2 0
2 0
2 0
2 0
2 0
2 0
2 0
2 0
2 0
2 0
2 0
2 0
2 0
2 0
2 0
2 0
2 0
2 0
2 0
2 0
2 0
2 0
2 0
2 0
2 0
2 0
2 0
2 0
2 0
2 0
2 0
2 0
2 0
2 0
2 0
2 0
2 0
2 0
2 0
2 0
2 0
2 0
2 0
2 0
2 0
2 0
2 0
2 0
2 0
2 0
2 0
2 0
2 0
2 0
2 0
2 0
2 0
2 0
2 0
2 0
2 0
2 0
2 0
2 0
2 0
2 0
2 0
2 0
2 0
2 0
2 0
2 0
2 0
2 0
2 0
2 0
2 0
2 0
2 0
2 0
2 0
2 0
2 0
2 0
2 0
2 0
2 0
2 0
2 0
2 0
2 0
2 0
2 0
2 0
2 0
2 0
2 0
2 0
2 0
2 0
2 0
2 0
2 0
2 0
2 0
2 0
2 0
2 0
2 0
2 0
2 0
2 0
2 0
2 0
2 0
2 0
2 0
2 0
2 0
2 0
2 0
2 0
2 0
2 0
2 0
2 0
2 0
2 0
2 0
2 0
2 0
2 0
2 0
2 0
2 0
2 0
2 0
2 0
2 0
2 0
2 0
2 0
2 0
2 0
2 0
2 0
2 0
2 0
2 0
2 0
2 0
2 0
2 0
2 0
2 0
2 0
2 0
2 0
2 0
2 0
2 0
2 0
2 0
2 0
2 0
2 0
2 0
2 0
2 0
2 0
2 0
2 0
2 0
2 0
2 0
2 0
2 0
2 0
2 0
2 0
2 0
2 0
2 0
2 0
2 0
2 0
2 0
2 0
2 0
2 0
2 0
2 0
2 0
2 0
2 0
2 0
2 0
2 0
2 0
2 0
2 0
2 0
2 0
2 0
2 0
2 0
2 0
2 0
2 0
2 0
2 0
2 0
2 0
2 0
2 0
2 0
2 0
2 0
2 0
2 0
2 0
2 0
2 0
2 0
2 0
2 0
2 0
2 0
2 0
2 0
2 0
2 0
2 0
2 0
2 0
2 0
2 0
2 0
2 0
2 0
2 0
2 0
2 0
2 0
2 0
2 0
2 0
2 0
2 0
2 0
2 0
2 0
2 0
2 0
2 0
2 0
2 0
2 0
2 0
2 0
2 0
2 0
2 0
2 0
2 0
2 0
2 0
2 0
2 0
2 0
2 0
2 0
2 0
2 0
2 0
2 0
2 0
2 0
2 0
2 0
2 0
2 0
2 0
2 0
2 0
2 0
2 0
2 0
2 0
2 0
2 0
2 0
x468
0 0.1
1 0.1
2 0.1
3 2000
4 0.1
5 0.1
6 0.1
7 0.1
8 0.1
9 0.1
10 0.1
11 0.1
12 0.1
13 0.1
14 0.1
15 0.1
16 0.1
17 0.1
18 0.1
19 0.1
20 0.1
21 2000
22 0.1
23 0.1
24 0.1
25 0.1
26 0.1
27 0.1
28 0.1
29 0.1
30 0.1
31 0.1
32 0.1
33 0.1
34 0.1
35 0.1
36 0.1
37 0.1
38 0.1
39 0.1
40 0.1
41 0.1
42 0.1
43 0.1
44 0.1
45 0.1
46 0.1
47 0.1
48 0.1
49 0.1
50 0.1
51 0.1
52 0.1
53 0.1
54 0.1
55 0.1
56 0.1
57 0.1
58 0.1
59 0.1
60 0.1
61 0.1
62 0.1
63 0.1
64 0.1
65 0.1
66 0.1
67 0.1
68 0.1
69 0.1
70 0.1
71 0.1
72 0.1
73 0.1
74 0.1
75 0.1
76 0.1
77 0.1
78 0.1
79 0.1
80 0.1
81 0.1
82 0.1
83 0.1
84 0.1
85 0.1
86 0.1
87 0.1
88 0.1
89 0.1
90 0.1
91 0.1
92 0.1
93 0.1
94 0.1
95 0.1
96 0.1
97 0.1
98 0.1
99 0.1
100 0.1
101 0.1
102 0.1
103 0.1
104 0.1
105 0.1
106 0.1
107 0.1
108 0.1
109 0.1
110 0.1
111 0.1
112 0.1
113 0.1
114 0.1
115 0.1
116 0.1
117 0.1
118 0.1
119 0.1
120 0.1
121 0.1
122 0.1
123 0.1
124 0.1
125 0.1
126 0.1
127 0.1
128 0.1
129 0.1
130 0.1
131 0.1
132 0.1
133 0.1
134 0.1
135 0.1
136 0.1
137 0.1
138 0.1
139 0.1
140 0.1
141 0.1
142 0.1
143 0.1
144 0.1
145 0.1
146 0.1
147 0.1
148 0.1
149 0.1
150 0.1
151 0.1
152 0.1
153 0.1
154 0.1
155 0.1
156 0.1
157 0.1
158 0.1
159 0.1
160 0.1
161 0.1
162 0.1
163 0.1
164 0.1
165 0.1
166 0.1
167 0.1
168 0.1
169 0.1
170 0.1
171 0.1
172 0.1
173 0.1
174 0.1
175 0.1
176 0.1
177 0.1
178 0.1
179 0.1
180 0.1
181 0.1
182 0.1
183 0.1
184 0.1
185 0.1
186 0.1
187 0.1
188 0.1
189 0.1
190 0.1
191 0.1
192 0.1
193 0.1
194 0.1
195 0.1
196 0.1
197 0.1
198 0.1
199 0.1
200 0.1
201 0.1
202 0.1
203 0.1
204 0.1
205 0.1
206 0.1
207 0.1
208 0.1
209 0.1
210 0.1
211 0.1
212 0.1
213 0.1
214 0.1
215 0.1
216 0.1
217 0.1
218 0.1
219 0.1
220 0.1
221 0.1
222 0.1
223 0.1
224 0.1
225 0.1
226 0.1
227 0.1
228 0.1
229 0.1
230 0.1
231 0.1
232 0.1
233 0.1
234 0.1
235 0.1
236 0.1
237 0.1
238 0.1
239 0.1
240 0.1
241 0.1
242 0.1
243 0.1
244 0.1
245 0.1
246 0.1
247 0.1
248 0.1
249 0.1
250 0.1
251 0.1
252 0.1
253 0.1
254 0.1
255 0.1
256 0.1
257 0.1
258 0.1
259 0.1
260 0.1
261 0.1
262 0.1
263 0.1
264 0.1
265 0.1
266 0.1
267 0.1
268 0.1
269 0.1
270 0.1
271 0.1
272 0.1
273 0.1
274 0.1
275 0.1
276 0.1
277 0.1
278 0.1
279 0.1
280 0.1
281 0.1
282 0.1
283 0.1
284 0.1
285 0.1
286 0.1
287 0.1
288 0.1
289 0.1
290 0.1
291 0.1
292 0.1
293 0.1
294 0.1
295 0.1
296 0.1
297 0.1
298 0.1
299 0.1
300 0.1
301 0.1
302 0.1
303 0.1
304 0.1
305 0.1
306 0.1
307 0.1
308 0.1
309 0.1
310 0.1
311 0.1
312 0.1
313 0.1
314 0.1
315 0.1
316 0.1
317 0.1
318 0.1
319 0.1
320 0.1
321 0.1
322 0.1
323 0.1
324 0.1
325 0.1
326 0.1
327 0.1
328 0.1
329 0.1
330 0.1
331 0.1
332 0.1
333 0.1
334 0.1
335 0.1
336 0.1
337 0.1
338 0.1
339 0.1
340 0.1
341 0.1
342 0.1
343 0.1
344 0.1
345 0.1
346 0.1
347 0.1
348 0.1
349 0.1
350 0.1
351 0.1
352 0.1
353 0.1
354 0.1
355 0.1
356 0.1
357 0.1
358 0.1
359 0.1
360 0.1
361 0.1
362 0.1
363 0.1
364 0.1
365 0.1
366 0.1
367 0.1
368 0.1
369 0.1
370 0.1
371 0.1
372 0.1
373 0.1
374 0.1
375 0.1
376 0.1
377 0.1
378 0.1
379 0.1
380 0.1
381 0.1
382 0.1
383 0.1
384 0.1
385 0.1
386 0.1
387 0.1
388 0.1
389 0.1
390 0.1
391 0.1
392 0.1
393 0.1
394 0.1
395 0.1
396 0.1
397 0.1
398 0.1
399 0.1
400 0.1
401 0.1
402 0.1
403 0.1
404 0.1
405 0.1
406 0.1
407 0.1
408 0.1
409 0.1
410 0.1
411 0.1
412 0.1
413 0.1
414 0.1
415 0.1
416 0.1
417 0.1
418 0.1
419 0.1
420 0.1
421 0.1
422 0.1
423 0.1
424 0.1
425 0.1
426 0.1
427 0.1
428 0.1
429 0.1
430 0.1
431 0.1
432 0.1
433 0.1
434 0.1
435 0.1
436 0.1
437 0.1
438 0.1
439 0.1
440 0.1
441 0.1
442 0.1
443 0.1
444 0.1
445 0.1
446 0.1
447 0.1
448 0.1
449 0.1
450 0.1
451 0.1
452 0.1
453 0.1
454 0.1
455 0.1
456 0.1
457 0.1
458 0.1
459 0.1
460 0.1
461 0.1
462 0.1
463 0.1
464 0.1
465 0.1
466 0.1
467 0.1
r
4 0
4 0
4 0
4 0
4 0
4 0
4 0
4 0
4 0
4 0
4 0
4 0
4 -2000
4 -2000
4 -1000
4 0
4 0
4 0
4 200
4 200
4 100
4 0
4 0
4 0
4 2000
4 0
4 0
4 -1000
4 -2000
4 0
4 -200
4 0
4 0
4 100
4 200
4 0
4 0
4 2000
4 0
4 1000
4 0
4 -1000
4 0
4 -200
4 0
4 -100
4 0
4 100
4 0
4 0
4 1000
4 0
4 2000
4 1000
4 0
4 0
4 -100
4 0
4 -200
4 -100
4 0
4 0
4 0
4 0
4 0
4 0
4 0
4 0
4 0
4 0
4 0
4 0
4 0
4 0
4 0
4 0
4 0
4 0
4 0
4 0
4 0
4 0
4 0
4 0
4 0
4 0
4 0
4 0
4 0
4 0
4 0
4 0
4 0
4 0
4 0
4 0
4 0
4 0
4 0
4 0
4 0
4 0
4 0
4 0
4 0
4 0
4 0
4 0
C0
n0
C1
n0
C2
n0
C3
n0
C4
n0
C5
n0
C6
n0
C7
n0
C8
n0
C9
n0
C10
n0
C11
n0
C12
n0
C13
n0
C14
n0
C15
n0
C16
n0
C17
n0
C18
n0
C19
n0
C20
n0
C21
n0
C22
n0
C23
n0
C24
n0
C25
n0
C26
n0
C27
n0
C28
n0
C29
n0
C30
n0
C31
n0
C32
n0
C33
n0
C34
n0
C35
n0
C36
n0
C37
n0
C38
n0
C39
n0
C40
n0
C41
n0
C42
n0
C43
n0
C44
n0
C45
n0
C46
n0
C47
n0
C48
n0
C49
n0
C50
n0
C51
n0
C52
n0
C53
n0
C54
n0
C55
n0
C56
n0
C57
n0
C58
n0
C59
n0
C60
n0
C61
n0
C62
n0
C63
n0
C64
n0
C65
n0
C66
n0
C67
n0
C68
n0
C69
n0
C70
n0
C71
n0
C72
n0
C73
n0
C74
n0
C75
n0
C76
n0
C77
n0
C78
n0
C79
n0
C80
n0
C81
n0
C82
n0
C83
n0
C84
n0
C85
n0
C86
n0
C87
n0
C88
n0
C89
n0
C90
n0
C91
n0
C92
n0
C93
n0
C94
n0
C95
n0
C96
n0
C97
n0
C98
n0
C99
n0
C100
n0
C101
n0
C102
n0
C103
n0
C104
n0
C105
n0
C106
n0
C107
n0
O0 0
o54
72
o2
o3
n0.35000000000000003
o5
v0
n2
o5
o54
12
v36
v54
v72
v90
v108
v126
v144
v162
v180
v198
v216
v234
n3
o2
o3
n0.35000000000000003
o5
v18
n2
o5
o54
12
v252
v270
v288
v306
v324
v342
v360
v378
v396
v414
v432
v450
n3
o2
n0.35000000000000003
o39
v0
o2
n0.35000000000000003
o39
v18
o2
o3
n0.4
o5
v1
n2
o5
o54
12
v37
v55
v73
v91
v109
v127
v145
v163
v181
v199
v217
v235
n3
o2
o3
n0.4
o5
v19
n2
o5
o54
12
v253
v271
v289
v307
v325
v343
v361
v379
v397
v415
v433
v451
n3
o2
n0.4
o39
v1
o2
n0.4
o39
v19
o2
o3
n0.3
o5
v2
n2
o5
o54
12
v38
v56
v74
v92
v110
v128
v146
v164
v182
v200
v218
v236
n3
o2
o3
n0.3
o5
v20
n2
o5
o54
12
v254
v272
v290
v308
v326
v344
v362
v380
v398
v416
v434
v452
n3
o2
n0.3
o39
v2
o2
n0.3
o39
v20
o2
o3
n1
o5
v3
n2
o5
o54
12
v39
v57
v75
v93
v111
v129
v147
v165
v183
v201
v219
v237
n3
o2
o3
n1
o5
v21
n2
o5
o54
12
v255
v273
v291
v309
v327
v345
v363
v381
v399
v417
v435
v453
n3
o39
o0
n-1999.99
v3
o39
o0
n-1999.99
v21
o2
o3
n0.15
o5
v4
n2
o5
o54
12
v40
v58
v76
v94
v112
v130
v148
v166
v184
v202
v220
v238
n3
o2
o3
n0.15
o5
v22
n2
o5
o54
12
v256
v274
v292
v310
v328
v346
v364
v382
v400
v418
v436
v454
n3
o2
n0.15
o39
v4
o2
n0.15
o39
v22
o2
o3
n0.55
o5
v5
n2
o5
o54
12
v41
v59
v77
v95
v113
v131
v149
v167
v185
v203
v221
v239
n3
o2
o3
n0.55
o5
v23
n2
o5
o54
12
v257
v275
v293
v311
v329
v347
v365
v383
v401
v419
v437
v455
n3
o2
n0.55
o39
v5
o2
n0.55
o39
v23
o2
o3
n1
o5
v6
n2
o5
o54
12
v42
v60
v78
v96
v114
v132
v150
v168
v186
v204
v222
v240
n3
o2
o3
n1
o5
v24
n2
o5
o54
12
v258
v276
v294
v312
v330
v348
v366
v384
v402
v420
v438
v456
n3
o39
v6
o39
v24
o2
o3
n0.25
o5
v7
n2
o5
o54
12
v43
v61
v79
v97
v115
v133
v151
v169
v187
v205
v223
v241
n3
o2
o3
n0.25
o5
v25
n2
o5
o54
12
v259
v277
v295
v313
v331
v349
v367
v385
v403
v421
v439
v457
n3
o2
n0.25
o39
v7
o2
n0.25
o39
v25
o2
o3
n0.6
o5
v8
n2
o5
o54
12
v44
v62
v80
v98
v116
v134
v152
v170
v188
v206
v224
v242
n3
o2
o3
n0.6
o5
v26
n2
o5
o54
12
v260
v278
v296
v314
v332
v350
v368
v386
v404
v422
v440
v458
n3
o2
n0.6
o39
v8
o2
n0.6
o39
v26
o2
o3
n0.35000000000000003
o5
v9
n2
o5
o54
12
v45
v63
v81
v99
v117
v135
v153
v171
v189
v207
v225
v243
n3
o2
o3
n0.35000000000000003
o5
v27
n2
o5
o54
12
v261
v279
v297
v315
v333
v351
v369
v387
v405
v423
v441
v459
n3
o2
n0.35000000000000003
o39
v9
o2
n0.35000000000000003
o39
v27
o2
o3
n0.55
o5
v10
n2
o5
o54
12
v46
v64
v82
v100
v118
v136
v154
v172
v190
v208
v226
v244
n3
o2
o3
n0.55
o5
v28
n2
o5
o54
12
v262
v280
v298
v316
v334
v352
v370
v388
v406
v424
v442
v460
n3
o2
n0.55
o39
v10
o2
n0.55
o39
v28
o2
o3
n0.15
o5
v11
n2
o5
o54
12
v47
v65
v83
v101
v119
v137
v155
v173
v191
v209
v227
v245
n3
o2
o3
n0.15
o5
v29
n2
o5
o54
12
v263
v281
v299
v317
v335
v353
v371
v389
v407
v425
v443
v461
n3
o2
n0.15
o39
v11
o2
n0.15
o39
v29
o2
o3
n0.4
o5
v12
n2
o5
o54
12
v48
v66
v84
v102
v120
v138
v156
v174
v192
v210
v228
v246
n3
o2
o3
n0.4
o5
v30
n2
o5
o54
12
v264
v282
v300
v318
v336
v354
v372
v390
v408
v426
v444
v462
n3
o2
n0.4
o39
v12
o2
n0.4
o39
v30
o2
o3
n0.6
o5
v13
n2
o5
o54
12
v49
v67
v85
v103
v121
v139
v157
v175
v193
v211
v229
v247
n3
o2
o3
n0.6
o5
v31
n2
o5
o54
12
v265
v283
v301
v319
v337
v355
v373
v391
v409
v427
v445
v463
n3
o2
n0.6
o39
v13
o2
n0.6
o39
v31
o2
o3
n0.25
o5
v14
n2
o5
o54
12
v50
v68
v86
v104
v122
v140
v158
v176
v194
v212
v230
v248
n3
o2
o3
n0.25
o5
v32
n2
o5
o54
12
v266
v284
v302
v320
v338
v356
v374
v392
v410
v428
v446
v464
n3
o2
n0.25
o39
v14
o2
n0.25
o39
v32
o2
o3
n0.3
o5
v15
n2
o5
o54
12
v51
v69
v87
v105
v123
v141
v159
v177
v195
v213
v231
v249
n3
o2
o3
n0.3
o5
v33
n2
o5
o54
12
v267
v285
v303
v321
v339
v357
v375
v393
v411
v429
v447
v465
n3
o2
n0.3
o39
v15
o2
n0.3
o39
v33
o2
o3
n0.5
o5
v16
n2
o5
o54
12
v52
v70
v88
v106
v124
v142
v160
v178
v196
v214
v232
v250
n3
o2
o3
n0.5
o5
v34
n2
o5
o54
12
v268
v286
v304
v322
v340
v358
v376
v394
v412
v430
v448
v466
n3
o2
n0.5
o39
v16
o2
n0.5
o39
v34
o2
o3
n0.5
o5
v17
n2
o5
o54
12
v53
v71
v89
v107
v125
v143
v161
v179
v197
v215
v233
v251
n3
o2
o3
n0.5
o5
v35
n2
o5
o54
12
v269
v287
v305
v323
v341
v359
v377
v395
v413
v431
v449
v467
n3
o2
n0.5
o39
v17
o2
n0.5
o39
v35
k467
0
0
0
0
0
0
0
0
0
0
0
0
0
0
0
0
0
0
0
0
0
0
0
0
0
0
0
0
0
0
0
0
0
0
0
0
2
4
6
8
10
12
14
16
18
20
22
24
26
28
30
32
34
36
38
40
42
44
46
48
50
52
54
56
58
60
62
64
66
68
70
72
74
76
78
80
82
84
86
88
90
92
94
96
98
100
102
104
106
108
110
112
114
116
118
120
122
124
126
128
130
132
134
136
138
140
142
144
146
148
150
152
154
156
158
160
162
164
166
168
170
172
174
176
178
180
182
184
186
188
190
192
194
196
198
200
202
204
206
208
210
212
214
216
218
220
222
224
226
228
230
232
234
236
238
240
242
244
246
248
250
252
254
256
258
260
262
264
266
268
270
272
274
276
278
280
282
284
286
288
290
292
294
296
298
300
302
304
306
308
310
312
314
316
318
320
322
324
326
328
330
332
334
336
338
340
342
344
346
348
350
352
354
356
358
360
362
364
366
368
370
372
374
376
378
380
382
384
386
388
390
392
394
396
398
400
402
404
406
408
410
412
414
416
418
420
422
424
426
428
430
432
434
436
438
440
442
444
446
448
450
452
454
456
458
460
462
464
466
468
470
472
474
476
478
480
482
484
486
488
490
492
494
496
498
500
502
504
506
508
510
512
514
516
518
520
522
524
526
528
530
532
534
536
538
540
542
544
546
548
550
552
554
556
558
560
562
564
566
568
570
572
574
576
578
580
582
584
586
588
590
592
594
596
598
600
602
604
606
608
610
612
614
616
618
620
622
624
626
628
630
632
634
636
638
640
642
644
646
648
650
652
654
656
658
660
662
664
666
668
670
672
674
676
678
680
682
684
686
688
690
692
694
696
698
700
702
704
706
708
710
712
714
716
718
720
722
724
726
728
730
732
734
736
738
740
742
744
746
748
750
752
754
756
758
760
762
764
766
768
770
772
774
776
778
780
782
784
786
788
790
792
794
796
798
800
802
804
806
808
810
812
814
816
818
820
822
824
826
828
830
832
834
836
838
840
842
844
846
848
850
852
854
856
858
860
862
J0 6
36 -1
37 -1
38 -1
252 1
253 1
254 1
J1 6
54 -1
55 -1
56 -1
270 1
271 1
272 1
J2 6
72 -1
73 -1
74 -1
288 1
289 1
290 1
J3 6
90 -1
91 -1
92 -1
306 1
307 1
308 1
J4 6
108 -1
109 -1
110 -1
324 1
325 1
326 1
J5 6
126 -1
127 -1
128 -1
342 1
343 1
344 1
J6 6
144 -1
145 -1
146 -1
360 1
361 1
362 1
J7 6
162 -1
163 -1
164 -1
378 1
379 1
380 1
J8 6
180 -1
181 -1
182 -1
396 1
397 1
398 1
J9 6
198 -1
199 -1
200 -1
414 1
415 1
416 1
J10 6
216 -1
217 -1
218 -1
432 1
433 1
434 1
J11 6
234 -1
235 -1
236 -1
450 1
451 1
452 1
J12 8
36 1
39 -1
40 -1
41 -1
252 -1
255 1
256 1
257 1
J13 8
54 1
57 -1
58 -1
59 -1
270 -1
273 1
274 1
275 1
J14 8
72 1
75 -1
76 -1
77 -1
288 -1
291 1
292 1
293 1
J15 8
90 1
93 -1
94 -1
95 -1
306 -1
309 1
310 1
311 1
J16 8
108 1
111 -1
112 -1
113 -1
324 -1
327 1
328 1
329 1
J17 8
126 1
129 -1
130 -1
131 -1
342 -1
345 1
346 1
347 1
J18 8
144 1
147 -1
148 -1
149 -1
360 -1
363 1
364 1
365 1
J19 8
162 1
165 -1
166 -1
167 -1
378 -1
381 1
382 1
383 1
J20 8
180 1
183 -1
184 -1
185 -1
396 -1
399 1
400 1
401 1
J21 8
198 1
201 -1
202 -1
203 -1
414 -1
417 1
418 1
419 1
J22 8
216 1
219 -1
220 -1
221 -1
432 -1
435 1
436 1
437 1
J23 8
234 1
237 -1
238 -1
239 -1
450 -1
453 1
454 1
455 1
J24 8
37 1
42 -1
43 -1
44 -1
253 -1
258 1
259 1
260 1
J25 8
55 1
60 -1
61 -1
62 -1
271 -1
276 1
277 1
278 1
J26 8
73 1
78 -1
79 -1
80 -1
289 -1
294 1
295 1
296 1
J27 8
91 1
96 -1
97 -1
98 -1
307 -1
312 1
313 1
314 1
J28 8
109 1
114 -1
115 -1
116 -1
325 -1
330 1
331 1
332 1
J29 8
127 1
132 -1
133 -1
134 -1
343 -1
348 1
349 1
350 1
J30 8
145 1
150 -1
151 -1
152 -1
361 -1
366 1
367 1
368 1
J31 8
163 1
168 -1
169 -1
170 -1
379 -1
384 1
385 1
386 1
J32 8
181 1
186 -1
187 -1
188 -1
397 -1
402 1
403 1
404 1
J33 8
199 1
204 -1
205 -1
206 -1
415 -1
420 1
421 1
422 1
J34 8
217 1
222 -1
223 -1
224 -1
433 -1
438 1
439 1
440 1
J35 8
235 1
240 -1
241 -1
242 -1
451 -1
456 1
457 1
458 1
J36 8
39 1
45 -1
46 -1
47 -1
255 -1
261 1
262 1
263 1
J37 8
57 1
63 -1
64 -1
65 -1
273 -1
279 1
280 1
281 1
J38 8
75 1
81 -1
82 -1
83 -1
291 -1
297 1
298 1
299 1
J39 8
93 1
99 -1
100 -1
101 -1
309 -1
315 1
316 1
317 1
J40 8
111 1
117 -1
118 -1
119 -1
327 -1
333 1
334 1
335 1
J41 8
129 1
135 -1
136 -1
137 -1
345 -1
351 1
352 1
353 1
J42 8
147 1
153 -1
154 -1
155 -1
363 -1
369 1
370 1
371 1
J43 8
165 1
171 -1
172 -1
173 -1
381 -1
387 1
388 1
389 1
J44 8
183 1
189 -1
190 -1
191 -1
399 -1
405 1
406 1
407 1
J45 8
201 1
207 -1
208 -1
209 -1
417 -1
423 1
424 1
425 1
J46 8
219 1
225 -1
226 -1
227 -1
435 -1
441 1
442 1
443 1
J47 8
237 1
243 -1
244 -1
245 -1
453 -1
459 1
460 1
461 1
J48 8
42 1
48 -1
49 -1
50 -1
258 -1
264 1
265 1
266 1
J49 8
60 1
66 -1
67 -1
68 -1
276 -1
282 1
283 1
284 1
J50 8
78 1
84 -1
85 -1
86 -1
294 -1
300 1
301 1
302 1
J51 8
96 1
102 -1
103 -1
104 -1
312 -1
318 1
319 1
320 1
J52 8
114 1
120 -1
121 -1
122 -1
330 -1
336 1
337 1
338 1
J53 8
132 1
138 -1
139 -1
140 -1
348 -1
354 1
355 1
356 1
J54 8
150 1
156 -1
157 -1
158 -1
366 -1
372 1
373 1
374 1
J55 8
168 1
174 -1
175 -1
176 -1
384 -1
390 1
391 1
392 1
J56 8
186 1
192 -1
193 -1
194 -1
402 -1
408 1
409 1
410 1
J57 8
204 1
210 -1
211 -1
212 -1
420 -1
426 1
427 1
428 1
J58 8
222 1
228 -1
229 -1
230 -1
438 -1
444 1
445 1
446 1
J59 8
240 1
246 -1
247 -1
248 -1
456 -1
462 1
463 1
464 1
J60 6
45 1
48 1
51 -1
261 -1
264 -1
267 1
J61 6
63 1
66 1
69 -1
279 -1
282 -1
285 1
J62 6
81 1
84 1
87 -1
297 -1
300 -1
303 1
J63 6
99 1
102 1
105 -1
315 -1
318 -1
321 1
J64 6
117 1
120 1
123 -1
333 -1
336 -1
339 1
J65 6
135 1
138 1
141 -1
351 -1
354 -1
357 1
J66 6
153 1
156 1
159 -1
369 -1
372 -1
375 1
J67 6
171 1
174 1
177 -1
387 -1
390 -1
393 1
J68 6
189 1
192 1
195 -1
405 -1
408 -1
411 1
J69 6
207 1
210 1
213 -1
423 -1
426 -1
429 1
J70 6
225 1
228 1
231 -1
441 -1
444 -1
447 1
J71 6
243 1
246 1
249 -1
459 -1
462 -1
465 1
J72 8
38 1
40 1
43 1
52 -1
254 -1
256 -1
259 -1
268 1
J73 8
56 1
58 1
61 1
70 -1
272 -1
274 -1
277 -1
286 1
J74 8
74 1
76 1
79 1
88 -1
290 -1
292 -1
295 -1
304 1
J75 8
92 1
94 1
97 1
106 -1
308 -1
310 -1
313 -1
322 1
J76 8
110 1
112 1
115 1
124 -1
326 -1
328 -1
331 -1
340 1
J77 8
128 1
130 1
133 1
142 -1
344 -1
346 -1
349 -1
358 1
J78 8
146 1
148 1
151 1
160 -1
362 -1
364 -1
367 -1
376 1
J79 8
164 1
166 1
169 1
178 -1
380 -1
382 -1
385 -1
394 1
J80 8
182 1
184 1
187 1
196 -1
398 -1
400 -1
403 -1
412 1
J81 8
200 1
202 1
205 1
214 -1
416 -1
418 -1
421 -1
430 1
J82 8
218 1
220 1
223 1
232 -1
434 -1
436 -1
439 -1
448 1
J83 8
236 1
238 1
241 1
250 -1
452 -1
454 -1
457 -1
466 1
J84 12
41 1
44 1
46 1
49 1
52 1
53 -1
257 -1
260 -1
262 -1
265 -1
268 -1
269 1
J85 12
59 1
62 1
64 1
67 1
70 1
71 -1
275 -1
278 -1
280 -1
283 -1
286 -1
287 1
J86 12
77 1
80 1
82 1
85 1
88 1
89 -1
293 -1
296 -1
298 -1
301 -1
304 -1
305 1
J87 12
95 1
98 1
100 1
103 1
106 1
107 -1
311 -1
314 -1
316 -1
319 -1
322 -1
323 1
J88 12
113 1
116 1
118 1
121 1
124 1
125 -1
329 -1
332 -1
334 -1
337 -1
340 -1
341 1
J89 12
131 1
134 1
136 1
139 1
142 1
143 -1
347 -1
350 -1
352 -1
355 -1
358 -1
359 1
J90 12
149 1
152 1
154 1
157 1
160 1
161 -1
365 -1
368 -1
370 -1
373 -1
376 -1
377 1
J91 12
167 1
170 1
172 1
175 1
178 1
179 -1
383 -1
386 -1
388 -1
391 -1
394 -1
395 1
J92 12
185 1
188 1
190 1
193 1
196 1
197 -1
401 -1
404 -1
406 -1
409 -1
412 -1
413 1
J93 12
203 1
206 1
208 1
211 1
214 1
215 -1
419 -1
422 -1
424 -1
427 -1
430 -1
431 1
J94 12
221 1
224 1
226 1
229 1
232 1
233 -1
437 -1
440 -1
442 -1
445 -1
448 -1
449 1
J95 12
239 1
242 1
244 1
247 1
250 1
251 -1
455 -1
458 -1
460 -1
463 -1
466 -1
467 1
J96 8
47 1
50 1
51 1
53 1
263 -1
266 -1
267 -1
269 -1
J97 8
65 1
68 1
69 1
71 1
281 -1
284 -1
285 -1
287 -1
J98 8
83 1
86 1
87 1
89 1
299 -1
302 -1
303 -1
305 -1
J99 8
101 1
104 1
105 1
107 1
317 -1
320 -1
321 -1
323 -1
J100 8
119 1
122 1
123 1
125 1
335 -1
338 -1
339 -1
341 -1
J101 8
137 1
140 1
141 1
143 1
353 -1
356 -1
357 -1
359 -1
J102 8
155 1
158 1
159 1
161 1
371 -1
374 -1
375 -1
377 -1
J103 8
173 1
176 1
177 1
179 1
389 -1
392 -1
393 -1
395 -1
J104 8
191 1
194 1
195 1
197 1
407 -1
410 -1
411 -1
413 -1
J105 8
209 1
212 1
213 1
215 1
425 -1
428 -1
429 -1
431 -1
J106 8
227 1
230 1
231 1
233 1
443 -1
446 -1
447 -1
449 -1
J107 8
245 1
248 1
249 1
251 1
461 -1
464 -1
465 -1
467 -1
G0 468
0 0
1 0
2 0
3 0
4 0
5 0
6 0
7 0
8 0
9 0
10 0
11 0
12 0
13 0
14 0
15 0
16 0
17 0
18 0
19 0
20 0
21 0
22 0
23 0
24 0
25 0
26 0
27 0
28 0
29 0
30 0
31 0
32 0
33 0
34 0
35 0
36 0.35000000000000003
37 0.4
38 0.3
39 1
40 0.15
41 0.55
42 1
43 0.25
44 0.6
45 0.35000000000000003
46 0.55
47 0.15
48 0.4
49 0.6
50 0.25
51 0.3
52 0.5
53 0.5
54 0.35000000000000003
55 0.4
56 0.3
57 1
58 0.15
59 0.55
60 1
61 0.25
62 0.6
63 0.35000000000000003
64 0.55
65 0.15
66 0.4
67 0.6
68 0.25
69 0.3
70 0.5
71 0.5
72 0.35000000000000003
73 0.4
74 0.3
75 1
76 0.15
77 0.55
78 1
79 0.25
80 0.6
81 0.35000000000000003
82 0.55
83 0.15
84 0.4
85 0.6
86 0.25
87 0.3
88 0.5
89 0.5
90 0.35000000000000003
91 0.4
92 0.3
93 1
94 0.15
95 0.55
96 1
97 0.25
98 0.6
99 0.35000000000000003
100 0.55
101 0.15
102 0.4
103 0.6
104 0.25
105 0.3
106 0.5
107 0.5
108 0.35000000000000003
109 0.4
110 0.3
111 1
112 0.15
113 0.55
114 1
115 0.25
116 0.6
117 0.35000000000000003
118 0.55
119 0.15
120 0.4
121 0.6
122 0.25
123 0.3
124 0.5
125 0.5
126 0.35000000000000003
127 0.4
128 0.3
129 1
130 0.15
131 0.55
132 1
133 0.25
134 0.6
135 0.35000000000000003
136 0.55
137 0.15
138 0.4
139 0.6
140 0.25
141 0.3
142 0.5
143 0.5
144 0.35000000000000003
145 0.4
146 0.3
147 1
148 0.15
149 0.55
150 1
151 0.25
152 0.6
153 0.35000000000000003
154 0.55
155 0.15
156 0.4
157 0.6
158 0.25
159 0.3
160 0.5
161 0.5
162 0.35000000000000003
163 0.4
164 0.3
165 1
166 0.15
167 0.55
168 1
169 0.25
170 0.6
171 0.35000000000000003
172 0.55
173 0.15
174 0.4
175 0.6
176 0.25
177 0.3
178 0.5
179 0.5
180 0.35000000000000003
181 0.4
182 0.3
183 1
184 0.15
185 0.55
186 1
187 0.25
188 0.6
189 0.35000000000000003
190 0.55
191 0.15
192 0.4
193 0.6
194 0.25
195 0.3
196 0.5
197 0.5
198 0.35000000000000003
199 0.4
200 0.3
201 1
202 0.15
203 0.55
204 1
205 0.25
206 0.6
207 0.35000000000000003
208 0.55
209 0.15
210 0.4
211 0.6
212 0.25
213 0.3
214 0.5
215 0.5
216 0.35000000000000003
217 0.4
218 0.3
219 1
220 0.15
221 0.55
222 1
223 0.25
224 0.6
225 0.35000000000000003
226 0.55
227 0.15
228 0.4
229 0.6
230 0.25
231 0.3
232 0.5
233 0.5
234 0.35000000000000003
235 0.4
236 0.3
237 1
238 0.15
239 0.55
240 1
241 0.25
242 0.6
243 0.35000000000000003
244 0.55
245 0.15
246 0.4
247 0.6
248 0.25
249 0.3
250 0.5
251 0.5
252 0.35000000000000003
253 0.4
254 0.3
255 1
256 0.15
257 0.55
258 1
259 0.25
260 0.6
261 0.35000000000000003
262 0.55
263 0.15
264 0.4
265 0.6
266 0.25
267 0.3
268 0.5
269 0.5
270 0.35000000000000003
271 0.4
272 0.3
273 1
274 0.15
275 0.55
276 1
277 0.25
278 0.6
279 0.35000000000000003
280 0.55
281 0.15
282 0.4
283 0.6
284 0.25
285 0.3
286 0.5
287 0.5
288 0.35000000000000003
289 0.4
290 0.3
291 1
292 0.15
293 0.55
294 1
295 0.25
296 0.6
297 0.35000000000000003
298 0.55
299 0.15
300 0.4
301 0.6
302 0.25
303 0.3
304 0.5
305 0.5
306 0.35000000000000003
307 0.4
308 0.3
309 1
310 0.15
311 0.55
312 1
313 0.25
314 0.6
315 0.35000000000000003
316 0.55
317 0.15
318 0.4
319 0.6
320 0.25
321 0.3
322 0.5
323 0.5
324 0.35000000000000003
325 0.4
326 0.3
327 1
328 0.15
329 0.55
330 1
331 0.25
332 0.6
333 0.35000000000000003
334 0.55
335 0.15
336 0.4
337 0.6
338 0.25
339 0.3
340 0.5
341 0.5
342 0.35000000000000003
343 0.4
344 0.3
345 1
346 0.15
347 0.55
348 1
349 0.25
350 0.6
351 0.35000000000000003
352 0.55
353 0.15
354 0.4
355 0.6
356 0.25
357 0.3
358 0.5
359 0.5
360 0.35000000000000003
361 0.4
362 0.3
363 1
364 0.15
365 0.55
366 1
367 0.25
368 0.6
369 0.35000000000000003
370 0.55
371 0.15
372 0.4
373 0.6
374 0.25
375 0.3
376 0.5
377 0.5
378 0.35000000000000003
379 0.4
380 0.3
381 1
382 0.15
383 0.55
384 1
385 0.25
386 0.6
387 0.35000000000000003
388 0.55
389 0.15
390 0.4
391 0.6
392 0.25
393 0.3
394 0.5
395 0.5
396 0.35000000000000003
397 0.4
398 0.3
399 1
400 0.15
401 0.55
402 1
403 0.25
404 0.6
405 0.35000000000000003
406 0.55
407 0.15
408 0.4
409 0.6
410 0.25
411 0.3
412 0.5
413 0.5
414 0.35000000000000003
415 0.4
416 0.3
417 1
418 0.15
419 0.55
420 1
421 0.25
422 0.6
423 0.35000000000000003
424 0.55
425 0.15
426 0.4
427 0.6
428 0.25
429 0.3
430 0.5
431 0.5
432 0.35000000000000003
433 0.4
434 0.3
435 1
436 0.15
437 0.55
438 1
439 0.25
440 0.6
441 0.35000000000000003
442 0.55
443 0.15
444 0.4
445 0.6
446 0.25
447 0.3
448 0.5
449 0.5
450 0.35000000000000003
451 0.4
452 0.3
453 1
454 0.15
455 0.55
456 1
457 0.25
458 0.6
459 0.35000000000000003
460 0.55
461 0.15
462 0.4
463 0.6
464 0.25
465 0.3
466 0.5
467 0.5
